Gurobi 12.0.1:   lim:time = 10
  mip:bestbound = 1
Set parameter LogToConsole to value 1
  tech:outlev = 1
Set parameter InfUnbdInfo to value 1
Gurobi Optimizer version 12.0.1 build v12.0.1rc0 (win64 - Windows 11.0 (22631.2))

CPU model: Intel(R) Core(TM) i7-10700 CPU @ 2.90GHz, instruction set [SSE2|AVX|AVX2]
Thread count: 8 physical cores, 16 logical processors, using up to 16 threads

Non-default parameters:
TimeLimit  10
InfUnbdInfo  1

Optimize a model with 1223 rows, 6182 columns and 30518 nonzeros
Model fingerprint: 0x4b3600df
Model has 15 quadratic objective terms
Model has 15 quadratic constraints
Model has 2025 simple general constraints
  2025 AND
Variable types: 35 continuous, 6147 integer (0 binary)
Coefficient statistics:
  Matrix range     [1e+00, 1e+05]
  QMatrix range    [2e+00, 3e+01]
  QLMatrix range   [1e+00, 3e+01]
  Objective range  [1e+00, 1e+02]
  QObjective range [2e+01, 2e+02]
  Bounds range     [1e+00, 3e+02]
  RHS range        [1e+00, 1e+05]
  QRHS range       [4e+01, 2e+02]
Presolve added 7794 rows and 0 columns
Presolve removed 0 rows and 76 columns
Presolve time: 0.48s
Presolved: 14140 rows, 10666 columns, 62345 nonzeros
Variable types: 28 continuous, 10638 integer (10638 binary)

Root relaxation: objective 1.511077e+03, 502 iterations, 0.06 seconds (0.04 work units)

    Nodes    |    Current Node    |     Objective Bounds      |     Work
 Expl Unexpl |  Obj  Depth IntInf | Incumbent    BestBd   Gap | It/Node Time

     0     0 1511.07673    0   63          - 1511.07673      -     -    1s
     0     0 1623.76667    0   78          - 1623.76667      -     -    2s
     0     0 1628.13000    0   82          - 1628.13000      -     -    2s
     0     0 1628.13000    0   81          - 1628.13000      -     -    2s
     0     0 1628.13000    0   81          - 1628.13000      -     -    2s
H    0     0                    2068.4000000 1628.13000  21.3%     -    3s
H    0     0                    2063.9500000 1628.13000  21.1%     -    3s
     0     0 1628.13000    0   76 2063.95000 1628.13000  21.1%     -    3s
     0     0 1635.94000    0   78 2063.95000 1635.94000  20.7%     -    3s
H    0     0                    2054.4800000 1635.94000  20.4%     -    3s
     0     0 1635.94000    0   72 2054.48000 1635.94000  20.4%     -    3s
     0     0 1635.94000    0   72 2054.48000 1635.94000  20.4%     -    3s
     0     2 1635.94000    0   72 2054.48000 1635.94000  20.4%     -    4s
    67    83 1674.33079   10   53 2054.48000 1635.94000  20.4%  88.6    5s
H   73    83                    2040.4800000 1635.94000  19.8%  83.6    5s
H  111   119                    2038.5900000 1635.94000  19.8%  67.1    5s
H  115   119                    2015.8300000 1635.94000  18.8%  66.1    5s
H  262   284                    2011.8300000 1635.94000  18.7%  42.6    5s
H  390   381                    2005.1200000 1635.94000  18.4%  35.3    6s
H 1214  1067                    1977.4300000 1635.94029  17.3%  18.7    7s

Cutting planes:
  Learned: 7
  Gomory: 7
  Lift-and-project: 1
  Cover: 12
  Implied bound: 37
  Clique: 3
  MIR: 11
  StrongCG: 2
  Zero half: 16
  RLT: 126
  Relax-and-lift: 1
  BQP: 2

Explored 1657 nodes (35047 simplex iterations) in 10.12 seconds (6.85 work units)
Thread count was 16 (of 16 available processors)

Solution count 9: 1977.43 2005.12 2011.83 ... 2068.4

Time limit reached
Best objective 1.977430000000e+03, best bound 1.635940287923e+03, gap 17.2694%

AMPL MP initial flat model has 4156 variables (0 integer, 4122 binary);
Objectives: 1 quadratic; 
Constraints:  1223 linear; 15 quadratic;
Logical expressions:  2025 and;

AMPL MP final model has 6182 variables (0 integer, 6147 binary);
Objectives: 1 quadratic; 
Constraints:  1223 linear; 15 quadratic;
Logical expressions:  2025 and;


-----RESULTS INFO-----
running_time:  10.296
TC.best_bound:  1635.940287922879
TC.best_bound:  1977.4299999999998
MIP Gap (%):  17.26937044937727
=== Vehicle Routes ===
Vehicle 1: 0 → 13
Vehicle 1: 6 → 8
Vehicle 1: 8 → 0
Vehicle 1: 13 → 6
Vehicle 2: 0 → 27
Vehicle 2: 3 → 26
Vehicle 2: 4 → 5
Vehicle 2: 5 → 35
Vehicle 2: 7 → 3
Vehicle 2: 11 → 29
Vehicle 2: 24 → 31
Vehicle 2: 26 → 4
Vehicle 2: 27 → 24
Vehicle 2: 29 → 0
Vehicle 2: 31 → 7
Vehicle 2: 35 → 11
Vehicle 3: 0 → 23
Vehicle 3: 1 → 2
Vehicle 3: 2 → 12
Vehicle 3: 9 → 28
Vehicle 3: 12 → 9
Vehicle 3: 23 → 37
Vehicle 3: 25 → 1
Vehicle 3: 28 → 0
Vehicle 3: 37 → 25
Vehicle 4: 0 → 33
Vehicle 4: 33 → 0
Vehicle 5: 0 → 10
Vehicle 5: 10 → 0

=== Full Vehicle Routes ===
Vehicle 1: 0 → 13 → 6 → 8 → 0
Vehicle 2: 0 → 27 → 24 → 31 → 7 → 3 → 26 → 4 → 5 → 35 → 11 → 29 → 0
Vehicle 3: 0 → 23 → 37 → 25 → 1 → 2 → 12 → 9 → 28 → 0
Vehicle 4: 0 → 33 → 0
Vehicle 5: 0 → 10 → 0
Arc used by MRT line: y variables:
MRT used: 33 → 32
MRT used: 35 → 34
Customer assigment to PL: u variables:
14 35
15 34
16 37
17 35
18 33
19 37
20 33
21 33
22 33
30 32
Node is served by regular vehicle: g variables:
1
2
3
4
5
6
7
8
9
10
11
12
13
23
24
25
26
27
28
29
31
37
33
35
Customer assigment to Home delivery: gm variables:
1
2
3
4
5
6
7
8
9
10
11
12
13
23
24
25
26
27
28
29
31
Customer's demand delivered to PL: l variables:
14
15
16
17
18
19
20
21
22
30
